solution status: time limit reached
objective value:                          34201.69813
y#3                                                 1 	(obj:5700)
y#8                                                 1 	(obj:5700)
y#11                                                1 	(obj:5700)
y#12                                                1 	(obj:5700)
y#14                                                1 	(obj:5700)
y#16                                                1 	(obj:5700)
x#1#8                                               1 	(obj:0.00935)
x#2#12                                              1 	(obj:0.03162)
x#3#8                                               1 	(obj:0.04879)
x#4#14                                              1 	(obj:0.03298)
x#5#12                                              1 	(obj:0.00629)
x#6#16                                              1 	(obj:0.02924)
x#7#11                                              1 	(obj:0.02703)
x#8#16                                              1 	(obj:0.01479)
x#9#3                                               1 	(obj:0.0102)
x#10#11                                             1 	(obj:0.02924)
x#11#16                                             1 	(obj:0.03026)
x#12#11                                             1 	(obj:0.02601)
x#13#12                                             1 	(obj:0.03332)
x#14#16                                             1 	(obj:0.03128)
x#15#12                                             1 	(obj:0.03196)
x#16#8                                              1 	(obj:0.01207)
x#17#14                                             1 	(obj:0.04488)
x#18#12                                             1 	(obj:0.01241)
x#19#14                                             1 	(obj:0.03553)
x#20#14                                             1 	(obj:0.03179)
x#21#3                                              1 	(obj:0.04709)
x#22#16                                             1 	(obj:0.02703)
x#23#11                                             1 	(obj:0.02278)
x#24#11                                             1 	(obj:0.0493)
x#25#14                                             1 	(obj:0.02635)
x#26#8                                              1 	(obj:0.01054)
x#27#11                                             1 	(obj:0.02312)
x#28#14                                             1 	(obj:0.05661)
x#29#8                                              1 	(obj:0.01139)
x#30#16                                             1 	(obj:0.03196)
x#31#11                                             1 	(obj:0.04556)
x#32#16                                             1 	(obj:0.02244)
x#33#8                                              1 	(obj:0.02856)
x#34#11                                             1 	(obj:0.03213)
x#35#14                                             1 	(obj:0.00459)
x#36#8                                              1 	(obj:0.02227)
x#37#3                                              1 	(obj:0.02788)
x#38#3                                              1 	(obj:0.0459)
x#39#11                                             1 	(obj:0.03485)
x#40#12                                             1 	(obj:0.05576)
x#41#11                                             1 	(obj:0.01717)
x#42#8                                              1 	(obj:0.02312)
x#43#3                                              1 	(obj:0.02091)
x#44#8                                              1 	(obj:0.0306)
x#45#12                                             1 	(obj:0.04607)
x#46#8                                              1 	(obj:0.02499)
x#47#12                                             1 	(obj:0.05508)
x#48#16                                             1 	(obj:0.01088)
x#49#12                                             1 	(obj:0.05032)
x#50#16                                             1 	(obj:0.02295)
x#51#8                                              1 	(obj:0.02329)
x#52#3                                              1 	(obj:0.03281)
x#53#16                                             1 	(obj:0.01462)
x#54#14                                             1 	(obj:0.02516)
x#55#11                                             1 	(obj:0.0119)
x#56#12                                             1 	(obj:0.02159)
x#57#16                                             1 	(obj:0.03332)
x#58#14                                             1 	(obj:0.01071)
x#59#14                                             1 	(obj:0.02754)
x#60#16                                             1 	(obj:0.03995)
